(set-logic QF_LIA)
(declare-fun x0 () Int)
(declare-fun x1 () Int)
(declare-fun x2 () Int)
(declare-fun x3 () Int)
(declare-fun x4 () Int)
(declare-fun x5 () Int)
(declare-fun x6 () Int)
(declare-fun x7 () Int)
(declare-fun x8 () Int)
(declare-fun x9 () Int)
(declare-fun A0 () Bool)
(declare-fun A2 () Bool)
(declare-fun A3 () Bool)
(declare-fun A4 () Bool)
(declare-fun A5 () Bool)
(declare-fun A6 () Bool)
(declare-fun A9 () Bool)
(assert (let ((.def_0 (* 1 x5))) (let ((.def_1 (* (- 1) x7))) (let ((.def_2 (+ .def_1 .def_0))) (let ((.def_3 (< .def_2 1))) (let ((.def_4 (not .def_3))) (let ((.def_5 (* (- 1) x0))) (let ((.def_6 (* 1 x4))) (let ((.def_7 (+ .def_6 .def_5))) (let ((.def_8 (< .def_7 1))) (let ((.def_9 (not .def_8))) (let ((.def_10 (and .def_9 .def_4))) (let ((.def_11 (* (- 1) x2))) (let ((.def_12 (< .def_11 (- 1)))) (let ((.def_13 (or A0 .def_12))) (let ((.def_14 (or .def_13 .def_10))) (let ((.def_15 (* 1 x2))) (let ((.def_16 (< .def_15 (- 1)))) (let ((.def_17 (or .def_16 A6))) (let ((.def_18 (not A3))) (let ((.def_19 (and A9 .def_18))) (let ((.def_20 (not .def_19))) (let ((.def_21 (and .def_20 .def_17))) (let ((.def_22 (not .def_21))) (let ((.def_23 (and .def_22 .def_14))) (let ((.def_24 (not A5))) (let ((.def_25 (and A6 .def_24))) (let ((.def_26 (not .def_25))) (let ((.def_27 (* (- 1) x3))) (let ((.def_28 (* (- 1) x1))) (let ((.def_29 (+ .def_28 .def_27))) (let ((.def_30 (< .def_29 1))) (let ((.def_31 (* 1 x8))) (let ((.def_32 (+ .def_31 .def_28))) (let ((.def_33 (< .def_32 (- 1)))) (let ((.def_34 (not .def_33))) (let ((.def_35 (and .def_34 .def_30))) (let ((.def_36 (and .def_35 .def_26))) (let ((.def_37 (not .def_36))) (let ((.def_38 (not A4))) (let ((.def_39 (* 1 x1))) (let ((.def_40 (< .def_39 (- 1)))) (let ((.def_41 (or .def_40 .def_38))) (let ((.def_42 (not .def_41))) (let ((.def_43 (* (- 1) x4))) (let ((.def_44 (+ .def_43 .def_11))) (let ((.def_45 (< .def_44 1))) (let ((.def_46 (and .def_45 A2))) (let ((.def_47 (not .def_46))) (let ((.def_48 (or .def_47 .def_42))) (let ((.def_49 (or .def_48 .def_37))) (let ((.def_50 (not .def_49))) (let ((.def_51 (or .def_50 .def_23))) (let ((.def_52 (not .def_51))) (let ((.def_53 (<= x9 1))) (let ((.def_54 (<= 0 x9))) (let ((.def_55 (<= x8 1))) (let ((.def_56 (<= 0 x8))) (let ((.def_57 (<= x7 1))) (let ((.def_58 (<= 0 x7))) (let ((.def_59 (<= x6 1))) (let ((.def_60 (<= 0 x6))) (let ((.def_61 (<= x5 1))) (let ((.def_62 (<= 0 x5))) (let ((.def_63 (<= x4 1))) (let ((.def_64 (<= 0 x4))) (let ((.def_65 (<= x3 1))) (let ((.def_66 (<= 0 x3))) (let ((.def_67 (<= x2 1))) (let ((.def_68 (<= 0 x2))) (let ((.def_69 (<= x1 1))) (let ((.def_70 (<= 0 x1))) (let ((.def_71 (<= x0 1))) (let ((.def_72 (<= 0 x0))) (let ((.def_73 (and .def_72 .def_71 .def_70 .def_69 .def_68 .def_67 .def_66 .def_65 .def_64 .def_63 .def_62 .def_61 .def_60 .def_59 .def_58 .def_57 .def_56 .def_55 .def_54 .def_53 .def_52))) .def_73)))))))))))))))))))))))))))))))))))))))))))))))))))))))))))))))))))))))))))
(check-sat)
